% seed = 8179511

mint = 46;
% maxt = 125;

nActs = 22;
dur = [0,6,2,9,7,9,2,6,1,10,8,10,8,1,6,10,3,5,3,10,9,0];

nSkills = 4;
sreq = [| 0,0,0,0,
	| 0,3,1,2,
	| 1,1,0,3,
	| 0,1,2,2,
	| 3,1,0,1,
	| 0,2,3,2,
	| 2,0,2,2,
	| 0,2,3,3,
	| 3,1,3,0,
	| 3,0,1,1,
	| 1,0,2,1,
	| 3,3,0,3,
	| 2,0,1,3,
	| 1,3,2,0,
	| 2,0,2,3,
	| 3,2,3,0,
	| 0,2,1,1,
	| 1,1,2,0,
	| 0,1,2,2,
	| 3,0,2,1,
	| 0,1,3,3,
	| 0,0,0,0, |];

nResources = 20;
mastery = [| true,false,true,true,
	| false,true,true,false,
	| false,false,true,false,
	| true,true,true,false,
	| false,false,true,false,
	| true,true,false,true,
	| false,true,true,false,
	| false,true,false,false,
	| false,false,true,true,
	| false,true,true,true,
	| false,false,true,false,
	| false,false,false,true,
	| true,false,false,false,
	| false,false,true,false,
	| true,true,true,false,
	| false,true,true,true,
	| false,false,true,true,
	| false,false,false,true,
	| true,true,false,false,
	| false,true,true,true, |];

nPrecs = 43;
pred = [1,1,1,2,2,2,3,3,3,4,4,4,5,5,5,6,6,6,7,7,8,9,9,10,10,10,11,12,12,13,13,14,14,15,15,16,17,17,18,18,19,20,21];
succ = [2,3,4,13,7,16,12,5,6,19,20,16,17,10,14,11,7,8,9,15,13,17,14,18,11,15,16,13,15,17,14,18,20,19,21,21,18,20,19,21,22,22,22];

nUnrels = 79;
unpred = [2,2,2,2,2,2,2,2,3,4,4,4,4,4,4,4,4,4,4,4,4,4,5,5,5,5,5,5,6,6,7,7,7,7,7,7,8,8,8,8,8,8,9,9,9,9,9,9,10,10,10,10,10,11,11,11,11,11,11,11,11,12,13,13,14,14,14,15,15,15,15,16,16,16,16,18,19,19,20];
unsucc = [3,4,5,6,8,10,11,12,4,5,6,7,8,9,10,11,12,13,14,15,17,18,6,7,8,9,12,13,10,12,8,10,11,12,13,16,9,10,11,12,15,16,10,11,12,13,15,16,12,13,14,17,20,12,13,14,15,17,18,19,20,16,15,16,15,16,17,16,17,18,20,17,18,19,20,20,20,21,21];

USEFUL_RES = [{},
	{1,2,3,4,5,6,7,8,9,10,11,12,14,15,16,17,18,19,20},
	{1,2,4,6,7,8,9,10,12,13,15,16,17,18,19,20},
	{1,2,3,4,5,6,7,8,9,10,11,12,14,15,16,17,18,19,20},
	{1,2,4,6,7,8,9,10,12,13,15,16,17,18,19,20},
	{1,2,3,4,5,6,7,8,9,10,11,12,14,15,16,17,18,19,20},
	{1,2,3,4,5,6,7,9,10,11,12,13,14,15,16,17,18,19,20},
	{1,2,3,4,5,6,7,8,9,10,11,12,14,15,16,17,18,19,20},
	{1,2,3,4,5,6,7,8,9,10,11,13,14,15,16,17,19,20},
	{1,2,3,4,5,6,7,9,10,11,12,13,14,15,16,17,18,19,20},
	{1,2,3,4,5,6,7,9,10,11,12,13,14,15,16,17,18,19,20},
	{1,2,4,6,7,8,9,10,12,13,15,16,17,18,19,20},
	{1,2,3,4,5,6,7,9,10,11,12,13,14,15,16,17,18,19,20},
	{1,2,3,4,5,6,7,8,9,10,11,13,14,15,16,17,19,20},
	{1,2,3,4,5,6,7,9,10,11,12,13,14,15,16,17,18,19,20},
	{1,2,3,4,5,6,7,8,9,10,11,13,14,15,16,17,19,20},
	{1,2,3,4,5,6,7,8,9,10,11,12,14,15,16,17,18,19,20},
	{1,2,3,4,5,6,7,8,9,10,11,13,14,15,16,17,19,20},
	{1,2,3,4,5,6,7,8,9,10,11,12,14,15,16,17,18,19,20},
	{1,2,3,4,5,6,7,9,10,11,12,13,14,15,16,17,18,19,20},
	{1,2,3,4,5,6,7,8,9,10,11,12,14,15,16,17,18,19,20},
	{}];

POTENTIAL_ACT = [{2,3,4,5,6,7,8,9,10,11,12,13,14,15,16,17,18,19,20,21},
	{2,3,4,5,6,7,8,9,10,11,12,13,14,15,16,17,18,19,20,21},
	{2,4,6,7,8,9,10,11,13,14,15,16,17,18,19,20,21},
	{2,3,4,5,6,7,8,9,10,11,12,13,14,15,16,17,18,19,20,21},
	{2,4,6,7,8,9,10,11,13,14,15,16,17,18,19,20,21},
	{2,3,4,5,6,7,8,9,10,11,12,13,14,15,16,17,18,19,20,21},
	{2,3,4,5,6,7,8,9,10,11,12,13,14,15,16,17,18,19,20,21},
	{2,3,4,5,6,8,9,12,14,16,17,18,19,21},
	{2,3,4,5,6,7,8,9,10,11,12,13,14,15,16,17,18,19,20,21},
	{2,3,4,5,6,7,8,9,10,11,12,13,14,15,16,17,18,19,20,21},
	{2,4,6,7,8,9,10,11,13,14,15,16,17,18,19,20,21},
	{2,3,4,5,6,7,8,10,11,12,13,15,17,19,20,21},
	{3,5,7,9,10,11,12,13,14,15,16,18,20},
	{2,4,6,7,8,9,10,11,13,14,15,16,17,18,19,20,21},
	{2,3,4,5,6,7,8,9,10,11,12,13,14,15,16,17,18,19,20,21},
	{2,3,4,5,6,7,8,9,10,11,12,13,14,15,16,17,18,19,20,21},
	{2,3,4,5,6,7,8,9,10,11,12,13,14,15,16,17,18,19,20,21},
	{2,3,4,5,6,7,8,10,11,12,13,15,17,19,20,21},
	{2,3,4,5,6,7,8,9,10,11,12,13,14,15,16,17,18,19,20,21},
	{2,3,4,5,6,7,8,9,10,11,12,13,14,15,16,17,18,19,20,21}];
